Route 1: 136 188 171 63 178 66 160 49 7 82 46 70 162 94 60 30 133 16 61 108 173 99 92 39 117 17 40 167 170 165 58 52 105 36 122 28
Route 2: 196 142 62 186 14 19 11 107 116 35 65 15 4 147 175 155 9 89 179 72 24 176 135 124 140 121 111 157 174 164 64 137 34 114 68
Route 3: 200 51 41 177 87 163 43 134 22 78 8 191 151 69 172 75 168 154 21 183 3 195 189 47 54 146 159 44 161 197 83 23 184 144 42
Route 4: 1 26 192 198 187 50 152 149 57 113 131 104 169 84 53 27 56 185 180 123 115 18 37 55 85 88 98 76 97 31 166 38 119
Route 5: 132 67 153 10 59 93 86 118 182 45 77 33 13 12 73 32 96 139 141 103 74 100 81 130 112 120 109 95 125 129 6
Route 6: 110 20 193 138 2 143 126 90 25 128 29 148 106 91 48 145 127 71 5 194 190 158 101 80 156 199 79
Route 7: 102 150 181
Vehicles: 7
Distance: 2696.21
